SPARKNaCl/why3-z3/sparknacl-utils.adb_85_11_complete_cases_1.smt2
;; produced by z3_gnatprove.drv ;;
(set-info :smt-lib-version 2.5)
(set-info :source |VC generated by SPARK 2014|)
(set-info :category industrial)
(set-info :status unknown)
;;; generated by SMT-LIB2 driver
;;; SMT-LIB2 driver: bit-vectors, common part
;;; SMT-LIB2: integer arithmetic
(declare-sort gf32_any_limb 0)

;; "gf32_any_limb'int"
(declare-fun gf32_any_limbqtint (gf32_any_limb) Int)

;; "gf32_any_limb'axiom"
(assert
  (forall ((i gf32_any_limb))
    (and
      (<= (- 65536) (gf32_any_limbqtint i))
      (<= (gf32_any_limbqtint i) 132051011))))

;; "in_range"
(define-fun in_range ((x Int)) Bool
  (and (<= (- 65536) x) (<= x 132051011)))

;; "to_rep"
(define-fun to_rep ((x gf32_any_limb)) Int
  (gf32_any_limbqtint x))

;; "of_rep"
(declare-fun of_rep (Int) gf32_any_limb)

;; "inversion_axiom"
(assert
  (forall ((x gf32_any_limb))
    (! (= (of_rep (to_rep x)) x) :pattern ((to_rep x)) )))

;; "range_axiom"
(assert
  (forall ((x gf32_any_limb))
    (! (in_range (to_rep x)) :pattern ((to_rep x)) )))

;; "coerce_axiom"
(assert
  (forall ((x Int))
    (! (=> (in_range x) (= (to_rep (of_rep x)) x)) :pattern ((to_rep
                                                               (of_rep x))) )))

(declare-sort map1 0)

(declare-datatypes ()
  ((map__ref (map__refqtmk (map__content map1)))))

;; "has_bounds"
(declare-fun has_bounds (map1
  Int
  Int) Bool)

(declare-const swap Bool)

(declare-sort tinteger_32B 0)

;; "tinteger_32B'int"
(declare-fun tinteger_32Bqtint (tinteger_32B) Int)

;; "tinteger_32B'axiom"
(assert
  (forall ((i tinteger_32B))
    (and
      (<= (- 2147483648) (tinteger_32Bqtint i))
      (<= (tinteger_32Bqtint i) 2147483647))))

;; "in_range"
(define-fun in_range1 ((x Int)) Bool
  (and (<= (- 2147483648) x) (<= x 2147483647)))

;; "to_rep"
(define-fun to_rep1 ((x tinteger_32B)) Int
  (tinteger_32Bqtint x))

;; "of_rep"
(declare-fun of_rep1 (Int) tinteger_32B)

;; "inversion_axiom"
(assert
  (forall ((x tinteger_32B))
    (! (= (of_rep1 (to_rep1 x)) x) :pattern ((to_rep1 x)) )))

;; "range_axiom"
(assert
  (forall ((x tinteger_32B))
    (! (in_range1 (to_rep1 x)) :pattern ((to_rep1 x)) )))

;; "coerce_axiom"
(assert
  (forall ((x Int))
    (! (=> (in_range1 x) (= (to_rep1 (of_rep1 x)) x)) :pattern ((to_rep1
                                                                  (of_rep1 x))) )))

(declare-const p map1)

(declare-const q map1)

;; "q'unused"
(define-fun qqtunused () map__ref
  (map__refqtmk q))

;; "p'unused"
(define-fun pqtunused () map__ref
  (map__refqtmk p))

;; "Assume"
(assert (has_bounds p 0 15))

;; "Assume"
(assert (has_bounds q 0 15))

;; "temp___937"
(define-fun temp___937 () Bool
  swap)

;; "temp___old_1050'unused"
(define-fun temp___old_1050qtunused () map1
  q)

;; "map__content'result'unused"
(define-fun map__contentqtresultqtunused () map1
  q)

;; "temp___old_1045'unused"
(define-fun temp___old_1045qtunused () map1
  p)

;; "map__content'result'unused"
(define-fun map__contentqtresultqtunused1 () map1
  p)

;; "temp___old_1044'unused"
(define-fun temp___old_1044qtunused () map1
  q)

;; "map__content'result'unused"
(define-fun map__contentqtresultqtunused2 () map1
  q)

;; "temp___old_1043'unused"
(define-fun temp___old_1043qtunused () map1
  p)

;; "map__content'result'unused"
(define-fun map__contentqtresultqtunused3 () map1
  p)

;; "temp___old_1030'unused"
(define-fun temp___old_1030qtunused () map1
  q)

;; "map__content'result'unused"
(define-fun map__contentqtresultqtunused4 () map1
  q)

;; "temp___old_1025'unused"
(define-fun temp___old_1025qtunused () map1
  p)

;; "map__content'result'unused"
(define-fun map__contentqtresultqtunused5 () map1
  p)

;; "temp___old_1024'unused"
(define-fun temp___old_1024qtunused () map1
  p)

;; "map__content'result'unused"
(define-fun map__contentqtresultqtunused6 () map1
  p)

;; "temp___old_1023'unused"
(define-fun temp___old_1023qtunused () map1
  q)

;; "map__content'result'unused"
(define-fun map__contentqtresultqtunused7 () map1
  q)

;; Goal "def'vc"
;; File "sparknacl-utils.adb", line 81, characters 0-0
(assert
  (not
  (<= 1 (+ (+ 0 (ite (= temp___937 true) 1 0)) (ite (not (= swap true)) 1 0)))))

(check-sat)
